(set-logic QF_LIA)
(declare-fun x1 () Int)
(declare-fun x2 () Int)
(declare-fun x6 () Int)
(declare-fun x7 () Int)
(declare-fun x8 () Int)
(declare-fun x9 () Int)
(declare-fun x10 () Int)
(declare-fun x11 () Int)
(declare-fun x12 () Int)
(declare-fun x13 () Int)
(declare-fun x14 () Int)
(declare-fun x15 () Int)
(assert (let ((.def_0 (* (- 1) x1))) (let ((.def_1 (+ x2 .def_0))) (let ((.def_2 (<= .def_1 3))) (let ((.def_3 (= .def_1 3))) (let ((.def_4 (not .def_3))) (let ((.def_5 (or .def_4 .def_2))) (let ((.def_6 (* (- 1) x7))) (let ((.def_7 (+ x9 .def_6))) (let ((.def_8 (<= 2 .def_7))) (let ((.def_9 (= .def_7 2))) (let ((.def_10 (not .def_9))) (let ((.def_11 (or .def_10 .def_8))) (let ((.def_12 (<= .def_7 2))) (let ((.def_13 (or .def_10 .def_12))) (let ((.def_14 (* (- 1) x8))) (let ((.def_15 (+ x9 .def_14))) (let ((.def_16 (<= 2 .def_15))) (let ((.def_17 (= .def_15 2))) (let ((.def_18 (not .def_17))) (let ((.def_19 (or .def_18 .def_16))) (let ((.def_20 (<= .def_15 2))) (let ((.def_21 (or .def_18 .def_20))) (let ((.def_22 (+ x8 x7))) (let ((.def_23 (+ x10 .def_22))) (let ((.def_24 (<= .def_23 10))) (let ((.def_25 (= .def_23 10))) (let ((.def_26 (not .def_25))) (let ((.def_27 (or .def_26 .def_24))) (let ((.def_28 (<= 10 .def_23))) (let ((.def_29 (or .def_26 .def_28))) (let ((.def_30 (+ x9 .def_22))) (let ((.def_31 (+ x10 .def_30))) (let ((.def_32 (+ x12 .def_31))) (let ((.def_33 (+ x11 .def_32))) (let ((.def_34 (<= .def_33 26))) (let ((.def_35 (= .def_33 26))) (let ((.def_36 (not .def_35))) (let ((.def_37 (or .def_36 .def_34))) (let ((.def_38 (<= 26 .def_33))) (let ((.def_39 (or .def_36 .def_38))) (let ((.def_40 (* (- 2) x1))) (let ((.def_41 (+ x2 .def_40))) (let ((.def_42 (* (- 3) x11))) (let ((.def_43 (+ .def_42 .def_41))) (let ((.def_44 (+ x14 .def_43))) (let ((.def_45 (<= 25 .def_44))) (let ((.def_46 (= .def_44 25))) (let ((.def_47 (not .def_46))) (let ((.def_48 (or .def_47 .def_45))) (let ((.def_49 (<= .def_44 25))) (let ((.def_50 (or .def_47 .def_49))) (let ((.def_51 (<= 3 .def_1))) (let ((.def_52 (not .def_51))) (let ((.def_53 (not .def_2))) (let ((.def_54 (or .def_3 .def_53))) (let ((.def_55 (or .def_54 .def_52))) (let ((.def_56 (not .def_45))) (let ((.def_57 (not .def_49))) (let ((.def_58 (or .def_46 .def_57))) (let ((.def_59 (or .def_58 .def_56))) (let ((.def_60 (+ 5 x10))) (let ((.def_61 (+ (- 2) x10))) (let ((.def_62 (<= x10 0))) (let ((.def_63 (not .def_62))) (let ((.def_64 (ite .def_63 .def_61 .def_60))) (let ((.def_65 (<= x11 .def_64))) (let ((.def_66 (= x11 .def_64))) (let ((.def_67 (not .def_66))) (let ((.def_68 (or .def_67 .def_65))) (let ((.def_69 (<= .def_64 x11))) (let ((.def_70 (or .def_67 .def_69))) (let ((.def_71 (not .def_34))) (let ((.def_72 (not .def_38))) (let ((.def_73 (or .def_35 .def_72))) (let ((.def_74 (or .def_73 .def_71))) (let ((.def_75 (+ x11 x12))) (let ((.def_76 (<= .def_75 3))) (let ((.def_77 (= .def_75 3))) (let ((.def_78 (not .def_77))) (let ((.def_79 (or .def_78 .def_76))) (let ((.def_80 (<= 3 .def_75))) (let ((.def_81 (or .def_78 .def_80))) (let ((.def_82 (not .def_24))) (let ((.def_83 (not .def_28))) (let ((.def_84 (or .def_25 .def_83))) (let ((.def_85 (or .def_84 .def_82))) (let ((.def_86 (* (- 1) x6))) (let ((.def_87 (+ x13 .def_86))) (let ((.def_88 (+ x1 .def_87))) (let ((.def_89 (<= .def_88 0))) (let ((.def_90 (= .def_88 0))) (let ((.def_91 (not .def_90))) (let ((.def_92 (or .def_91 .def_89))) (let ((.def_93 (<= 0 .def_88))) (let ((.def_94 (or .def_91 .def_93))) (let ((.def_95 (not .def_16))) (let ((.def_96 (not .def_20))) (let ((.def_97 (or .def_17 .def_96))) (let ((.def_98 (or .def_97 .def_95))) (let ((.def_99 (* (- 1) x13))) (let ((.def_100 (+ x14 .def_99))) (let ((.def_101 (<= .def_100 (- 2)))) (let ((.def_102 (= .def_100 (- 2)))) (let ((.def_103 (not .def_102))) (let ((.def_104 (or .def_103 .def_101))) (let ((.def_105 (<= (- 2) .def_100))) (let ((.def_106 (or .def_103 .def_105))) (let ((.def_107 (* (- 1) x15))) (let ((.def_108 (+ x14 .def_107))) (let ((.def_109 (<= .def_108 (- 5)))) (let ((.def_110 (= .def_108 (- 5)))) (let ((.def_111 (not .def_110))) (let ((.def_112 (or .def_111 .def_109))) (let ((.def_113 (not .def_8))) (let ((.def_114 (not .def_12))) (let ((.def_115 (or .def_9 .def_114))) (let ((.def_116 (or .def_115 .def_113))) (let ((.def_117 (<= (- 5) .def_108))) (let ((.def_118 (or .def_111 .def_117))) (let ((.def_119 (or .def_4 .def_51))) (let ((.def_120 (not .def_109))) (let ((.def_121 (not .def_117))) (let ((.def_122 (or .def_110 .def_121))) (let ((.def_123 (or .def_122 .def_120))) (let ((.def_124 (<= 3 x15))) (let ((.def_125 (ite .def_124 3 x15))) (let ((.def_126 (= .def_125 3))) (let ((.def_127 (not .def_126))) (let ((.def_128 (= x15 .def_125))) (let ((.def_129 (not .def_128))) (let ((.def_130 (or .def_129 .def_127))) (let ((.def_131 (or .def_111 .def_130))) (let ((.def_132 (or .def_103 .def_131))) (let ((.def_133 (or .def_91 .def_132))) (let ((.def_134 (= x6 13))) (let ((.def_135 (not .def_134))) (let ((.def_136 (or .def_135 .def_133))) (let ((.def_137 (= x1 5))) (let ((.def_138 (not .def_137))) (let ((.def_139 (or .def_138 .def_136))) (let ((.def_140 (not .def_65))) (let ((.def_141 (not .def_69))) (let ((.def_142 (or .def_66 .def_141))) (let ((.def_143 (or .def_142 .def_140))) (let ((.def_144 (+ 5 .def_0))) (let ((.def_145 (+ x1 (- 3)))) (let ((.def_146 (<= x1 0))) (let ((.def_147 (not .def_146))) (let ((.def_148 (ite .def_147 .def_145 .def_144))) (let ((.def_149 (* (- 1) .def_148))) (let ((.def_150 (+ x1 .def_149))) (let ((.def_151 (= .def_150 3))) (let ((.def_152 (not .def_151))) (let ((.def_153 (+ x1 .def_148))) (let ((.def_154 (= .def_153 5))) (let ((.def_155 (not .def_154))) (let ((.def_156 (or .def_155 .def_152))) (let ((.def_157 (or .def_138 .def_156))) (let ((.def_158 (not .def_101))) (let ((.def_159 (not .def_105))) (let ((.def_160 (or .def_102 .def_159))) (let ((.def_161 (or .def_160 .def_158))) (let ((.def_162 (* (- 1) .def_64))) (let ((.def_163 (+ x10 .def_162))) (let ((.def_164 (= .def_163 (- 5)))) (let ((.def_165 (not .def_164))) (let ((.def_166 (= .def_163 2))) (let ((.def_167 (not .def_166))) (let ((.def_168 (or .def_167 .def_165))) (let ((.def_169 (not .def_89))) (let ((.def_170 (not .def_93))) (let ((.def_171 (or .def_90 .def_170))) (let ((.def_172 (or .def_171 .def_169))) (let ((.def_173 (or .def_164 .def_47))) (let ((.def_174 (or .def_103 .def_173))) (let ((.def_175 (or .def_91 .def_174))) (let ((.def_176 (or .def_36 .def_175))) (let ((.def_177 (or .def_78 .def_176))) (let ((.def_178 (or .def_177 .def_67))) (let ((.def_179 (or .def_26 .def_178))) (let ((.def_180 (or .def_18 .def_179))) (let ((.def_181 (or .def_10 .def_180))) (let ((.def_182 (or .def_181 .def_4))) (let ((.def_183 (or .def_135 .def_182))) (let ((.def_184 (or .def_138 .def_183))) (let ((.def_185 (not .def_76))) (let ((.def_186 (not .def_80))) (let ((.def_187 (or .def_77 .def_186))) (let ((.def_188 (or .def_187 .def_185))) (let ((.def_189 (or .def_124 .def_111))) (let ((.def_190 (or .def_189 .def_103))) (let ((.def_191 (or .def_190 .def_91))) (let ((.def_192 (or .def_191 .def_135))) (let ((.def_193 (or .def_138 .def_192))) (let ((.def_194 (or .def_62 .def_36))) (let ((.def_195 (or .def_194 .def_78))) (let ((.def_196 (or .def_195 .def_26))) (let ((.def_197 (or .def_196 .def_18))) (let ((.def_198 (or .def_197 .def_10))) (let ((.def_199 (<= x6 13))) (let ((.def_200 (not .def_199))) (let ((.def_201 (<= 13 x6))) (let ((.def_202 (not .def_201))) (let ((.def_203 (or .def_134 .def_202))) (let ((.def_204 (or .def_203 .def_200))) (let ((.def_205 (<= 0 x1))) (let ((.def_206 (or .def_205 .def_138))) (let ((.def_207 (or .def_147 .def_138))) (let ((.def_208 (<= x1 5))) (let ((.def_209 (not .def_208))) (let ((.def_210 (<= 5 x1))) (let ((.def_211 (not .def_210))) (let ((.def_212 (or .def_137 .def_211))) (let ((.def_213 (or .def_212 .def_209))) (let ((.def_214 (or .def_138 .def_208))) (let ((.def_215 (or .def_138 .def_210))) (let ((.def_216 (or .def_135 .def_199))) (let ((.def_217 (or .def_135 .def_201))) (let ((.def_218 (and .def_217 .def_216 .def_215 .def_214 .def_213 .def_207 .def_206 .def_204 .def_198 .def_193 .def_188 .def_184 .def_172 .def_168 .def_161 .def_157 .def_143 .def_139 .def_123 .def_119 .def_118 .def_116 .def_112 .def_106 .def_104 .def_98 .def_94 .def_92 .def_85 .def_81 .def_79 .def_74 .def_70 .def_68 .def_59 .def_55 .def_50 .def_48 .def_39 .def_37 .def_29 .def_27 .def_21 .def_19 .def_13 .def_11 .def_5))) .def_218))))))))))))))))))))))))))))))))))))))))))))))))))))))))))))))))))))))))))))))))))))))))))))))))))))))))))))))))))))))))))))))))))))))))))))))))))))))))))))))))))))))))))))))))))))))))))))))))))))))))))))))))))))))))))))
(check-sat)
